<number of tasks>
50

<cycle time>
1000

<order strength>
0.595


<task times>
1 690
2 475
3 497
4 529
5 481
6 703
7 608
8 568
9 505
10 488
11 359
12 599
13 290
14 370
15 752
16 381
17 312
18 562
19 534
20 714
21 406
22 461
23 374
24 478
25 507
26 426
27 535
28 534
29 576
30 439
31 712
32 281
33 597
34 815
35 521
36 121
37 524
38 481
39 652
40 408
41 557
42 514
43 706
44 633
45 470
46 435
47 492
48 403
49 470
50 478

<precedence relations>
1,14
2,14
3,14
4,14
5,41
6,8
6,9
6,11
6,12
6,13
7,10
7,16
7,23
8,14
9,14
10,29
11,41
12,14
12,15
12,17
13,14
13,16
14,18
14,19
14,20
14,21
14,22
14,23
15,29
16,41
17,22
17,23
18,29
20,24
20,27
20,32
21,25
21,37
22,24
22,28
23,25
23,26
23,28
24,29
25,29
26,30
27,37
28,31
28,32
29,33
29,34
29,35
29,36
30,41
31,39
32,37
33,39
35,38
35,43
36,40
36,41
38,41
39,41
39,42
39,43
41,44
41,45
41,46
41,47
41,48
47,50
48,49
48,50

<end>
